This is Ipopt version 3.14.16, running with linear solver MUMPS 5.7.3.

Number of nonzeros in equality constraint Jacobian...:        0
Number of nonzeros in inequality constraint Jacobian.:      578
Number of nonzeros in Lagrangian Hessian.............:        0

Total number of variables............................:       17
                     variables with only lower bounds:        0
                variables with lower and upper bounds:       17
                     variables with only upper bounds:        0
Total number of equality constraints.................:        0
Total number of inequality constraints...............:       34
        inequality constraints with only lower bounds:        0
   inequality constraints with lower and upper bounds:        0
        inequality constraints with only upper bounds:       34

iter    objective    inf_pr   inf_du lg(mu)  ||d||  lg(rg) alpha_du alpha_pr  ls
   0  6.6946149e-03 2.50e+00 1.00e+00   0.0 0.00e+00    -  0.00e+00 0.00e+00   0
   1  7.1256208e-03 6.87e-02 1.42e-01  -2.0 3.21e-02    -  8.59e-01 1.00e+00h  1
   2  7.1226065e-03 0.00e+00 1.72e-02  -6.7 2.09e-03    -  9.88e-01 1.00e+00h  1
   3  7.0914746e-03 0.00e+00 7.21e-04  -4.1 3.85e-02    -  9.96e-01 1.00e+00h  1
   4  6.8760396e-03 0.00e+00 6.94e-04  -4.5 3.81e-01    -  1.00e+00 9.28e-01h  1
   5  6.7250614e-03 0.00e+00 6.61e-04  -5.2 3.53e-01    -  1.00e+00 1.00e+00h  1
   6  6.6812622e-03 0.00e+00 4.07e-04  -6.2 5.31e-02    -  1.00e+00 1.00e+00h  1
   7  6.6832841e-03 0.00e+00 1.23e-03  -6.2 1.94e-02    -  9.99e-01 1.00e+00H  1
   8  6.6693251e-03 8.44e-03 1.22e-04  -6.3 7.40e-03    -  1.00e+00 1.00e+00h  1
   9  6.6660870e-03 0.00e+00 7.53e-05  -7.6 5.64e-03    -  1.00e+00 1.00e+00h  1
iter    objective    inf_pr   inf_du lg(mu)  ||d||  lg(rg) alpha_du alpha_pr  ls
  10  6.6664658e-03 7.12e-03 4.05e-04  -6.9 1.82e-02    -  1.00e+00 1.00e+00h  1
  11  6.6652525e-03 2.03e-03 2.61e-04  -7.1 7.62e-03    -  1.00e+00 7.49e-01h  1
  12  6.6669716e-03 2.27e-03 1.28e-04  -6.6 1.06e-02    -  1.00e+00 1.00e+00f  1
  13  6.6665068e-03 0.00e+00 3.50e-05  -6.7 6.39e-03    -  1.00e+00 1.00e+00h  1
  14  6.6664435e-03 0.00e+00 2.71e-05  -6.7 6.81e-04    -  1.00e+00 1.00e+00h  1
  15  6.6643489e-03 0.00e+00 2.76e-05  -7.8 3.46e-03    -  1.00e+00 1.00e+00h  1
  16  6.6642108e-03 1.27e-04 1.10e-04  -9.2 6.99e-04    -  1.00e+00 1.00e+00h  1
  17  6.6641187e-03 1.03e-04 5.93e-06 -10.2 6.02e-04    -  1.00e+00 1.00e+00h  1
  18  6.6641250e-03 0.00e+00 8.12e-07 -11.0 6.95e-05    -  1.00e+00 1.00e+00h  1

Number of Iterations....: 18

                                   (scaled)                 (unscaled)
Objective...............:   6.6641249980499886e-03    6.6641249980499886e-03
Dual infeasibility......:   8.1171978565585876e-07    8.1171978565585876e-07
Constraint violation....:   0.0000000000000000e+00    0.0000000000000000e+00
Variable bound violation:   4.6270667297676482e-08    4.6270667297676482e-08
Complementarity.........:   1.0512097824735605e-11    1.0512097824735605e-11
Overall NLP error.......:   8.1171978565585876e-07    8.1171978565585876e-07


Number of objective function evaluations             = 20
Number of objective gradient evaluations             = 19
Number of equality constraint evaluations            = 0
Number of inequality constraint evaluations          = 20
Number of equality constraint Jacobian evaluations   = 0
Number of inequality constraint Jacobian evaluations = 19
Number of Lagrangian Hessian evaluations             = 0
Total seconds in IPOPT                               = 17.356

EXIT: Optimal Solution Found.
